(set-option :produce-models true)
(set-logic QF_UF)
(declare-fun p26() Bool)
(declare-fun p21() Bool)
(declare-fun p27() Bool)
(declare-fun p29() Bool)
(declare-fun p16() Bool)
(declare-fun p10() Bool)
(declare-fun p15() Bool)
(declare-fun p12() Bool)
(declare-fun p25() Bool)
(declare-fun p28() Bool)
(declare-fun p20() Bool)
(declare-fun p7() Bool)
(declare-fun p9() Bool)
(declare-fun p0() Bool)
(declare-fun p2() Bool)
(declare-fun p11() Bool)
(declare-fun p1() Bool)
(declare-fun p18() Bool)
(declare-fun p3() Bool)
(declare-fun p13() Bool)
(declare-fun p14() Bool)
(declare-fun p19() Bool)
(declare-fun p24() Bool)
(declare-fun p23() Bool)
(declare-fun p6() Bool)
(declare-fun p5() Bool)
(declare-fun p22() Bool)
(declare-fun p8() Bool)
(declare-fun p17() Bool)
(declare-fun p4() Bool)
(assert
(and (or p26 (not p21) (not p21)) (or p27 (not p29) p16) (or (not p10) p21 (not p15)) (or p12 (not p25) p28) (or (not p20) (not p7) (not p9)) (or (not p0) p0 (not p12)) (or (not p2) (not p15) (not p11)) (or (not p28) p7 (not p1)) (or (not p18) (not p3) p26) (or (not p1) (not p13) (not p14)) (or p14 (not p16) p28) (or (not p2) p19 (not p15)) (or (not p3) p14 (not p24)) (or p12 (not p1) (not p29)) (or (not p28) (not p2) p11) (or (not p13) p7 (not p24)) (or p29 p7 (not p16)) (or (not p15) p24 p12) (or (not p11) p23 p7) (or p28 p3 (not p21)) (or (not p6) (not p13) (not p5)) (or (not p27) (not p14) p5) (or p10 p20 (not p27)) (or p18 (not p15) (not p10)) (or p27 (not p16) p6) (or p1 p11 p7) (or p24 p25 (not p3)) (or (not p22) p18 p29) (or p3 p2 p11) (or (not p20) (not p8) (not p21)) (or p19 (not p2) p29) (or p6 (not p23) (not p9)) (or (not p20) (not p5) p15) (or (not p11) p22 p25) (or (not p19) p29 (not p0)) (or (not p0) p8 p26) (or p15 p27 p6) (or p2 p2 p3) (or p22 p22 (not p12)) (or p29 p28 (not p23)) (or p28 p9 p17) (or p10 (not p5) p20) (or (not p29) (not p12) (not p15)) (or (not p11) p4 p23) (or p4 p23 p24) (or (not p13) (not p12) p18) (or p7 (not p20) (not p9)) (or p1 (not p1) (not p17)) (or p11 (not p9) (not p24)) (or p0 p29 p21) (or p2 p17 p11) (or p25 (not p14) p0) (or p2 p12 (not p13)) (or p5 p3 (not p29)) (or (not p12) (not p21) (not p20)) (or p4 p20 p24) (or p24 (not p0) p29) (or (not p11) (not p23) p5) (or (not p26) (not p18) p0) (or (not p19) (not p25) p3) (or p7 p14 (not p28)) (or (not p28) p0 (not p14)) (or p19 (not p29) (not p13)) (or (not p26) (not p1) (not p26)) (or (not p6) p27 p15) (or (not p14) p3 p3) (or (not p18) p5 p3) (or (not p8) p26 (not p28)) (or (not p28) p19 (not p22)) (or (not p9) (not p5) p29) (or p3 p10 p28) (or (not p29) p1 (not p20)) (or p10 p18 p12) (or p1 (not p2) p13) (or (not p28) (not p2) (not p3)) (or p18 (not p21) p25) (or (not p29) (not p6) p3) (or (not p25) (not p15) p8) (or p6 (not p0) (not p9)) (or (not p21) p28 (not p19)) (or (not p12) p12 (not p2)) (or (not p15) (not p20) (not p19)) (or (not p15) p15 (not p1)) (or p4 p2 (not p27)) (or (not p11) p29 p7) (or p28 (not p5) p28) (or (not p20) (not p6) (not p24)) (or p7 p21 (not p7)) (or p23 (not p0) p25) (or (not p7) p15 p18) (or p6 p14 (not p11)) (or (not p11) (not p7) p28) (or (not p4) (not p25) (not p21)) (or (not p12) (not p1) (not p19)) (or (not p21) (not p14) p29) (or (not p7) p26 p22) (or (not p19) p22 p5) (or (not p4) (not p29) p13) (or p17 (not p5) (not p9)) (or p16 (not p26) p23) (or p13 p29 (not p27)) (or (not p17) p5 (not p21)) (or p10 (not p21) p8) (or p8 (not p11) p19) (or (not p18) (not p15) (not p23)) (or p9 p19 p17) (or (not p28) p22 p21) (or (not p11) (not p12) p5) (or (not p28) p17 p3) (or (not p26) p2 (not p14)) (or (not p14) p1 (not p7)) (or p1 p2 (not p7)) (or p23 (not p2) (not p15)) (or (not p16) (not p23) (not p18)) (or p20 (not p23) (not p6)) (or p17 p10 p16) (or (not p10) p20 (not p25)) (or (not p22) p10 p27) (or p19 (not p29) p14) (or p20 (not p12) (not p2)) (or p11 (not p0) (not p18)) (or p11 (not p26) (not p28)) (or p0 (not p18) (not p3)) (or (not p18) p8 (not p9)) (or p8 (not p11) (not p26)) (or (not p14) p21 (not p10)) (or (not p25) (not p4) p1) (or p11 p11 (not p11)))
)
(check-sat)
(get-model)
